Optimal - objective value -1039.00000000
      8 x_8                    1                      -2
     13 x_13                   1                     -17
     23 x_23                   1                     -39
     24 x_24                   1                     -47
     43 x_43                   1                     -90
     44 x_44                   1                     -62
     50 x_50                   1                      -3
     52 x_52                   1                     -31
     53 x_53                   1                     -57
     54 x_54                   1                     -81
     63 x_63                   1                      32
     74 x_74                   1                     -80
     76 x_76                   1                     -56
     79 x_79                   1                     -98
